\ This file was automatically generated by Zimpl
\ param hemdMaschineWochenKosten := 1000;
\ param hoseRockMaschineWochenKosten := 2000;
\ param stundenProHemd := 3;
\ param materialProHemd := 1.2;
\ param gewinnProHemd := 30;
\ param stundenProRock := 2;
\ param materialProRock := 0.6;
\ param gewinnProRock := 45;
\ param stundenProHose := 1;
\ param materialProHose := 1.4;
\ param gewinnProHose := 60;
\ param maxArbeitsstunden := 150;
\ param maxMaterial := 160;
\ var hemdenAnz integer >= 0;
\ var rockAnz integer >= 0;
\ var hosenAnz integer >= 0;
\ param maxAnzahlProdukte := 99999999;
\ var hemdenMaschineVorhanden integer >= 0 <= 1;
\ var hosenRockMaschineVorhanden integer >= 0 <= 1;
\ maximize money: (hemdenAnz * gewinnProHemd) + (rockAnz * gewinnProRock) + (hosenAnz * gewinnProHose) - (hemdenMaschineVorhand
\ en * hemdMaschineWochenKosten) - (hosenRockMaschineVorhanden * hoseRockMaschineWochenKosten);
\ subto maximaleHemden: hemdenAnz <= hemdenMaschineVorhanden * maxAnzahlProdukte;
\ subto maximaleRoecke: rockAnz <= hosenRockMaschineVorhanden * maxAnzahlProdukte;
\ subto maximaleHosen: hosenAnz <= hosenRockMaschineVorhanden * maxAnzahlProdukte;
\ subto minimaleRoecke: rockAnz >= 35 * hosenRockMaschineVorhanden;
\ subto minimaleHosen: hosenAnz >= 35 * hosenRockMaschineVorhanden;
\ subto arbeitsstunden: (hemdenAnz * stundenProHemd) + (rockAnz * stundenProRock) + (hosenAnz * stundenProHose) <= maxArbeitsst
\ unden;
\ subto material: (hemdenAnz * materialProHemd) + (rockAnz * materialProRock) + (hosenAnz * materialProHose) <= maxMaterial;
\Problem name: Fashion.zpl
Maximize
 money:  +30 hemdenAnz +45 rockAnz +60 hosenAnz -1000 hemdenMaschine@3 -2000 hosenRockMasch@4
Subject to
 maximaleHemden_1:
  -99999999 hemdenMaschine@3 + hemdenAnz <= 0
 maximaleRoecke_1:
  -99999999 hosenRockMasch@4 + rockAnz <= 0
 maximaleHosen_1:
  -99999999 hosenRockMasch@4 + hosenAnz <= 0
 minimaleRoecke_1:
  -35 hosenRockMasch@4 + rockAnz >= 0
 minimaleHosen_1:
  -35 hosenRockMasch@4 + hosenAnz >= 0
 arbeitsstunden_1:
  + hosenAnz +2 rockAnz +3 hemdenAnz <= 150
 material_1:
  +1.4 hosenAnz +0.6 rockAnz +1.2 hemdenAnz <= 160
Bounds
 0 <= hemdenAnz <= +inf
 0 <= rockAnz <= +inf
 0 <= hosenAnz <= +inf
 0 <= hemdenMaschine@3 <= 1
 0 <= hosenRockMasch@4 <= 1
General
 hemdenAnz
 rockAnz
 hosenAnz
 hemdenMaschine@3
 hosenRockMasch@4
End
